Maximize
320 A1 + 320 C1 + 320 P1 + 400 A2 + 400 C2 + 400 P2 + 360 A3 +360 C3 + 360 P3 + 290 A4 + 290 C4 + 290 P4
Subject To
A1 + C1 + P1 <= 1
A2 + C2 + P2 <= 1
A3 + C3 + P3 <= 1
A4 + C4 + P4 <= 1
500 A1 + 700 A2 + 600 A3 + 400 A4 <= 600
500 C1 + 700 C2 + 600 C3 + 400 C4 <= 700
500 P1 + 700 P2 + 600 P3 + 400 P4 <= 400
20 A1 + 16 A2 + 25 A3 + 13 A4 - A = 0
20 C1 + 16 C2 + 25 C3 + 13 C4 - C = 0
20 P1 + 16 P2 + 25 P3 + 13 P4 - P = 0
A <= 12
C <= 18
P <= 10
0.3 C + 0.3 P - 0.7 A = 0
0.45 A + 0.45 P - 0.55 C = 0
0.25 A + 0.25 C - 0.75 P = 0
End